c b=3,c=519
p cnf 15 34
1 2 3 -6 0
2 3 -7 0
1 3 -8 0
3 -15 0
1 2 -3 6 0
1 -3 7 0
1 2 -3 8 0
-3 15 0
1 2 -5 0
1 2 -9 0
2 -14 0
-2 3 6 0
3 -9 0
-2 -3 -6 0
-2 -3 9 0
1 -2 5 0
1 -2 7 0
1 -2 -8 0
-2 14 0
1 -4 0
1 -13 0
-1 3 6 0
-1 -3 -6 0
-1 -3 9 0
-1 2 5 0
-1 2 -8 0
-1 -2 -5 0
-1 -2 8 0
-1 4 0
-1 -7 0
-1 13 0
-10 0
-11 0
-12 0
